c Sudoku solution
p cnf 729 0
227 0
242 0
265 0
276 0
298 0
338 0
349 0
387 0
392 0
422 0
486 0
539 0
566 0
572 0
588 0
595 0
637 0
754 0
762 0
652 0
835 0
843 0
897 0
477 0
924 0
967 0
717 0
975 0
745 0
455 0
185 0
911 0
626 0
615 0
418 0
325 0
251 0
371 0
861 0
444 0
514 0
364 0
121 0
523 0
431 0
541 0
648 0
557 0
147 0
946 0
816 0
932 0
733 0
796 0
781 0
882 0
874 0
778 0
729 0
828 0
859 0
958 0
112 0
219 0
313 0
234 0
136 0
356 0
283 0
153 0
168 0
673 0
499 0
463 0
669 0
179 0
194 0
684 0
691 0
989 0
993 0
